
******************************************************************************
This program contains Ipopt, a library for large-scale nonlinear optimization.
 Ipopt is released as open source code under the Eclipse Public License (EPL).
         For more information visit http://projects.coin-or.org/Ipopt

This version of Ipopt was compiled from source code available at
    https://github.com/IDAES/Ipopt as part of the Institute for the Design of
    Advanced Energy Systems Process Systems Engineering Framework (IDAES PSE
    Framework) Copyright (c) 2018-2019. See https://github.com/IDAES/idaes-pse.

This version of Ipopt was compiled using HSL, a collection of Fortran codes
    for large-scale scientific computation.  All technical papers, sales and
    publicity material resulting from use of the HSL codes within IPOPT must
    contain the following acknowledgement:
        HSL, a collection of Fortran codes for large-scale scientific
        computation. See http://www.hsl.rl.ac.uk.
******************************************************************************

This is Ipopt version 3.13.2, running with linear solver ma27.

Number of nonzeros in equality constraint Jacobian...:     1588
Number of nonzeros in inequality constraint Jacobian.:        0
Number of nonzeros in Lagrangian Hessian.............:     2432

Total number of variables............................:      576
                     variables with only lower bounds:      128
                variables with lower and upper bounds:      384
                     variables with only upper bounds:        0
Total number of equality constraints.................:      570
Total number of inequality constraints...............:        0
        inequality constraints with only lower bounds:        0
   inequality constraints with lower and upper bounds:        0
        inequality constraints with only upper bounds:        0

iter    objective    inf_pr   inf_du lg(mu)  ||d||  lg(rg) alpha_du alpha_pr  ls
   0  0.0000000e+00 8.74e-01 2.26e-13  -1.0 0.00e+00    -  0.00e+00 0.00e+00   0
   1  8.2290419e+00 8.57e-01 3.81e+03  -1.0 1.50e+06    -  4.08e-02 2.04e-02h  4
   2  1.0124733e+02 9.60e-01 2.63e+04  -1.0 1.44e+06    -  8.71e-02 5.42e-02h  3
   3  5.1662511e+02 8.23e-01 8.38e+04  -1.0 1.10e+06    -  2.94e-01 1.16e-01h  2
   4  5.2243126e+02 8.20e-01 8.39e+04  -1.0 4.29e+05  -4.0 2.00e-01 2.69e-03h  7
   5  5.2963422e+02 8.18e-01 8.35e+04  -1.0 8.87e+05    -  9.27e-02 2.92e-03h  5
   6  5.5111135e+02 8.08e-01 1.30e+05  -1.0 3.58e+06    -  8.40e-03 7.73e-03h  1
   7  5.5976550e+02 8.05e-01 1.29e+05  -1.0 9.31e+05    -  4.08e-01 3.38e-03h  1
   8  5.6742103e+02 8.03e-01 1.31e+05  -1.0 1.09e+06    -  1.80e-03 3.37e-03h  1
   9  5.8531013e+02 7.97e-01 1.30e+05  -1.0 2.13e+06    -  4.09e-03 6.95e-03h  6
iter    objective    inf_pr   inf_du lg(mu)  ||d||  lg(rg) alpha_du alpha_pr  ls
  10  5.8952912e+02 7.96e-01 1.30e+05  -1.0 2.76e+06    -  1.28e-02 1.55e-03h  8
  11  5.9008149e+02 7.95e-01 1.30e+05  -1.0 4.29e+05  -4.5 5.04e-02 2.36e-04h 11
  12  5.9028738e+02 7.95e-01 1.30e+05  -1.0 1.13e+06  -5.0 3.53e-02 9.30e-05h 12
  13  5.9044761e+02 7.95e-01 1.30e+05  -1.0 5.59e+05  -4.5 7.67e-02 7.00e-05h 13
  14  1.1821579e+03 2.03e+00 4.60e+07  -1.0 4.13e+05  -4.1 1.86e-02 2.00e-01h  1
  15  1.2665013e+03 1.89e+00 4.34e+07  -1.0 3.70e+05  -4.6 3.15e-01 5.86e-02h  1
  16  1.3118073e+03 1.84e+00 4.22e+07  -1.0 3.68e+05  -5.1 2.71e-01 2.72e-02h  4
  17  1.3482861e+03 8.15e-01 1.65e+07  -1.0 3.06e+05  -4.6 2.75e-01 2.17e-02h  4
  18  1.5356420e+03 7.57e-01 2.24e+07  -1.0 1.02e+06  -5.1 5.14e-01 6.38e-02h  3
  19  1.5643044e+03 7.44e-01 2.21e+07  -1.0 2.78e+05  -4.7 5.18e-01 1.58e-02h  4
iter    objective    inf_pr   inf_du lg(mu)  ||d||  lg(rg) alpha_du alpha_pr  ls
  20  1.5809849e+03 7.38e-01 2.19e+07  -1.0 3.66e+05  -5.2 7.35e-01 7.84e-03h  5
  21  1.5869055e+03 7.36e-01 2.19e+07  -1.0 2.77e+05  -4.7 5.42e-01 3.33e-03h  6
  22  1.5881862e+03 7.36e-01 2.19e+07  -1.0 9.57e+06  -5.2 8.36e-03 8.72e-05h  9
  23  1.5884865e+03 7.35e-01 2.19e+07  -1.0 4.39e+05  -3.0 3.29e-01 1.74e-04H  1
  24  1.5885876e+03 7.35e-01 2.18e+07  -1.0 7.48e+05  -3.5 1.79e-01 2.55e-04h  9
  25  1.5884377e+03 7.35e-01 2.18e+07  -1.0 4.29e+06  -3.9 5.83e-04 7.02e-05f  9
  26  1.5883904e+03 7.35e-01 2.18e+07  -1.0 5.46e+05  -3.5 1.67e-04 4.73e-04f  9
  27r 1.5883904e+03 7.35e-01 9.99e+02  -0.1 0.00e+00  -2.2 0.00e+00 2.93e-07R  3
  28r 1.5884045e+03 8.33e-01 9.97e+02  -0.1 6.09e+03    -  6.39e-03 1.58e-03f  1
  29r 1.5884410e+03 4.01e+00 9.91e+02  -0.1 4.81e+03    -  6.92e-03 5.81e-03f  1
iter    objective    inf_pr   inf_du lg(mu)  ||d||  lg(rg) alpha_du alpha_pr  ls
  30r 1.5884410e+03 3.99e+00 9.84e+02  -0.1 9.21e+02  -2.0 1.09e-02 5.09e-03f  1
  31r 1.5884142e+03 4.52e+00 9.81e+02  -0.1 4.07e+03    -  5.17e-03 3.74e-03f  1
  32r 1.5884142e+03 4.46e+00 9.68e+02  -0.1 2.40e+02  -1.6 1.86e-02 1.25e-02f  1
  33r 1.5884142e+03 4.36e+00 9.44e+02  -0.1 6.19e+01  -1.1 4.82e-02 2.28e-02f  1
  34r 1.5884142e+03 4.12e+00 8.93e+02  -0.1 2.46e+01  -0.7 5.82e-02 5.46e-02f  1
  35r 1.5884142e+03 4.06e+00 8.79e+02  -0.1 9.73e+00   0.6 3.75e-03 1.59e-02f  1
  36r 1.5884142e+03 3.82e+00 8.25e+02  -0.1 7.17e+00   0.1 1.02e-01 5.91e-02f  1
  37r 1.5884142e+03 3.54e+00 7.65e+02  -0.1 1.50e+01  -0.3 7.33e-02 7.28e-02f  1
  38r 1.5884142e+03 3.38e+00 7.30e+02  -0.1 2.46e+01  -0.8 8.60e-02 4.58e-02f  1
  39r 1.5884142e+03 3.32e+00 7.17e+02  -0.1 1.61e+02  -1.3 2.03e-02 1.68e-02f  1
iter    objective    inf_pr   inf_du lg(mu)  ||d||  lg(rg) alpha_du alpha_pr  ls
  40r 1.5884142e+03 3.04e+00 6.99e+02  -0.1 6.36e+01  -1.8 2.76e-02 8.56e-02f  1
  41r 1.5884142e+03 2.99e+00 7.22e+02  -0.1 1.28e+02  -1.4 9.75e-02 1.59e-02f  1
  42r 1.5884142e+03 2.97e+00 6.92e+02  -0.1 8.53e+01  -1.8 6.20e-02 7.14e-03f  1
  43r 1.5884142e+03 2.90e+00 6.99e+02  -0.1 5.90e+02  -2.3 3.12e-03 2.17e-02f  1
  44r 1.5884142e+03 2.47e+00 6.59e+02  -0.1 3.98e+01  -1.9 6.60e-02 1.48e-01f  1
  45r 1.5884143e+03 2.23e+00 5.97e+02  -0.1 4.01e+01  -1.5 9.47e-02 1.00e-01f  1
  46r 1.5884143e+03 2.04e+00 5.48e+02  -0.1 1.12e+02  -1.9 8.26e-02 8.53e-02f  1
  47r 1.5884143e+03 1.77e+00 3.96e+02  -0.1 2.00e+01  -1.5 4.40e-01 1.32e-01f  1
  48r 1.5884143e+03 1.42e+00 6.28e+02  -0.1 5.98e+01  -2.0 9.39e-01 1.96e-01f  1
  49r 1.5884143e+03 5.75e-01 1.53e+02  -0.1 2.03e+01  -1.6 7.70e-01 5.95e-01f  1
iter    objective    inf_pr   inf_du lg(mu)  ||d||  lg(rg) alpha_du alpha_pr  ls
  50  1.5901772e+03 5.74e-01 2.19e+02  -1.0 2.79e+05    -  5.12e-01 2.22e-03h  1
  51  1.6058101e+03 5.67e-01 2.21e+02  -1.0 8.43e+05    -  4.38e-01 1.27e-02h  1
  52  2.2429332e+03 4.97e-01 3.80e+03  -1.0 8.14e+05    -  3.15e-01 1.24e-01h  4
  53  2.7685826e+03 4.35e-01 3.38e+03  -1.0 6.05e+05    -  6.33e-01 1.24e-01h  4
  54  2.7689598e+03 4.35e-01 3.94e+05  -1.0 1.49e+05  -2.7 8.70e-01 4.77e-04h  1
  55  2.8167267e+03 4.09e-01 2.88e+05  -1.0 1.48e+05  -3.1 8.84e-01 5.97e-02h  2
  56  2.8167917e+03 4.09e-01 2.88e+05  -1.0 1.44e+05  -1.8 9.22e-02 1.25e-04h 10
  57  2.8156085e+03 4.09e-01 2.15e+06  -1.0 7.44e+05  -1.4 2.01e-05 9.94e-04f  7
  58r 2.8156085e+03 4.09e-01 1.00e+03  -0.4 0.00e+00  -1.9 0.00e+00 3.75e-07R  5
  59r 2.8156142e+03 1.23e-01 9.97e+02  -0.4 5.39e+03    -  1.55e-02 1.02e-03f  1
iter    objective    inf_pr   inf_du lg(mu)  ||d||  lg(rg) alpha_du alpha_pr  ls
  60  2.8175376e+03 1.23e-01 4.96e+02  -1.0 1.65e+05    -  7.14e-01 1.97e-03h  6
  61  2.8188563e+03 1.23e-01 1.00e+03  -1.0 1.67e+05    -  7.74e-01 1.03e-03h  7
  62  2.8611219e+03 1.22e-01 1.95e+03  -1.0 6.79e+05    -  5.35e-01 9.19e-03h  6
  63  2.8749785e+03 1.22e-01 1.81e+03  -1.0 7.79e+05    -  5.03e-01 1.93e-03h 10
  64  3.1460401e+03 1.14e-01 1.64e+03  -1.0 1.09e+06    -  4.38e-01 2.82e-02h  6
  65  3.1661852e+03 1.14e-01 1.51e+03  -1.0 1.08e+06    -  4.66e-01 1.82e-03h 10
  66  3.1765497e+03 1.14e-01 1.36e+03  -1.0 1.12e+06    -  5.00e-01 9.09e-04h 11
  67  3.1811286e+03 1.14e-01 1.10e+03  -1.0 1.09e+06    -  5.82e-01 4.07e-04h 12
  68  3.1830955e+03 1.14e-01 9.01e+02  -1.0 1.03e+06    -  6.23e-01 1.82e-04h 13
  69  3.1852240e+03 1.14e-01 1.03e+03  -1.0 1.01e+06    -  7.57e-01 2.00e-04h 13
iter    objective    inf_pr   inf_du lg(mu)  ||d||  lg(rg) alpha_du alpha_pr  ls
  70  2.5806012e+04 1.17e+02 1.86e+05  -1.0 9.99e+05    -  7.99e-01 8.81e-01w  1
  71  2.5806102e+04 1.17e+02 7.71e+06  -1.0 4.54e+06  -2.3 1.36e-01 1.68e-05w  1
  72  2.5850612e+04 1.16e+02 1.07e+07  -1.0 4.67e+06  -2.8 1.67e-01 5.41e-03w  1
  73  3.1897837e+03 1.14e-01 1.17e+03  -1.0 5.18e+06  -3.3 7.99e-01 4.30e-04h 11
  74  3.1994926e+03 1.14e-01 1.32e+03  -1.0 1.00e+06    -  8.18e-01 9.14e-04h 11
  75  3.2763361e+03 1.13e-01 1.46e+03  -1.0 9.99e+05    -  9.90e-01 7.15e-03h  8
  76  3.9174043e+03 1.08e-01 1.38e+03  -1.0 9.81e+05    -  9.93e-01 5.52e-02h  5
  77  4.5213994e+03 1.02e-01 1.49e+03  -1.0 8.36e+05    -  1.00e+00 5.24e-02h  5
  78  5.1034842e+03 9.67e-02 2.01e+03  -1.0 7.38e+05    -  1.00e+00 5.20e-02h  5
  79  5.6704975e+03 9.16e-02 2.49e+03  -1.0 6.57e+05    -  1.00e+00 5.31e-02h  5
iter    objective    inf_pr   inf_du lg(mu)  ||d||  lg(rg) alpha_du alpha_pr  ls
  80  6.7846231e+03 8.16e-02 4.50e+03  -1.0 5.75e+05    -  1.00e+00 1.09e-01h  4
  81  7.5474441e+03 7.30e-02 5.62e+03  -1.0 4.88e+05    -  1.00e+00 1.05e-01h  4
  82  8.0900292e+03 6.47e-02 6.07e+03  -1.0 4.18e+05    -  1.00e+00 1.13e-01h  4
  83  1.1999697e+04 3.65e+00 3.75e+04  -1.0 3.73e+05    -  1.00e+00 9.59e-01w  1
  84  1.1567808e+04 2.25e+00 9.38e+05  -1.0 3.95e+04  -3.8 1.45e-02 9.90e-01w  1
  85  1.1165354e+04 9.34e-01 1.04e+06  -1.0 4.73e+04  -4.2 1.58e-03 9.90e-01w  1
  86  1.0869364e+04 2.49e-01 3.51e+07  -1.0 3.63e+04  -4.7 5.30e-01 9.90e-01h  1
  87  1.0729135e+04 3.17e-02 1.57e+09  -1.0 2.05e+04  -5.2 7.84e-01 9.90e-01f  1
  88  1.0675847e+04 1.03e-03 5.43e+09  -1.0 3.74e+03  -5.7 9.83e-01 9.90e-01f  1
  89  1.0337727e+04 3.33e-02 3.37e+12  -1.0 2.20e+06    -  5.47e-02 1.05e-02f  1
iter    objective    inf_pr   inf_du lg(mu)  ||d||  lg(rg) alpha_du alpha_pr  ls
  90  1.0311449e+04 3.32e-02 3.21e+13  -1.0 5.54e+05    -  3.75e-01 2.83e-03f  1
  91  9.4967154e+03 2.00e-01 9.74e+13  -1.0 6.21e+05    -  1.00e+00 1.09e-01f  3
  92  8.8140442e+03 2.86e-01 1.61e+14  -1.0 5.12e+05    -  1.00e+00 1.24e-01f  4
  93  8.2487490e+03 4.91e-01 2.28e+14  -1.0 4.58e+05    -  1.00e+00 1.24e-01f  4
  94  8.0358187e+03 4.62e-01 3.20e+14  -1.0 3.56e+05    -  1.00e+00 6.19e-02f  5
In iteration 94, 30 Slacks too small, adjusting variable bounds
  95  6.5401212e+03 1.07e-01 4.41e+12  -1.0 3.21e+05    -  1.00e+00 9.90e-01F  1
In iteration 95, 2 Slacks too small, adjusting variable bounds
  96  6.2039523e+03 1.97e+00 3.42e+13  -1.0 1.41e+05    -  1.00e+00 9.90e-01f  1
  97  6.2475514e+03 2.58e+00 4.40e+03  -1.0 7.49e+04    -  1.00e+00 1.00e+00h  1
  98  6.2539690e+03 2.23e+00 3.24e+02  -1.0 1.25e+03  -6.1 1.00e+00 1.00e+00h  1
  99  6.2876052e+03 1.86e+00 3.07e+03  -1.0 1.02e+05  -6.6 5.93e-02 1.65e-01h  2
iter    objective    inf_pr   inf_du lg(mu)  ||d||  lg(rg) alpha_du alpha_pr  ls
 100  6.6114831e+03 1.50e-01 1.34e+03  -1.0 7.46e+04  -7.1 1.00e+00 1.00e+00h  1
 101  6.4830304e+03 3.54e-02 1.30e+14  -2.5 1.44e+04  -6.7 6.86e-01 1.00e+00f  1
 102  6.4519869e+03 1.17e+00 3.94e+12  -2.5 2.99e+03  -6.2 9.70e-01 1.00e+00f  1
 103  6.4266799e+03 7.92e-02 1.89e+02  -2.5 1.04e+04  -6.7 1.00e+00 9.32e-01f  1
 104  6.4176747e+03 4.16e-02 8.89e+01  -2.5 4.61e+03  -6.3 1.00e+00 4.75e-01f  1
 105  6.4175320e+03 4.16e-02 8.89e+01  -2.5 1.26e+05    -  1.00e+00 5.14e-04f  1
 106  6.3093026e+03 2.41e+00 4.77e+02  -2.5 1.13e+05    -  1.00e+00 1.00e+00f  1
 107  6.2841126e+03 5.31e-01 2.01e+03  -2.5 7.04e+04    -  1.00e+00 8.37e-01f  1
 108  6.3327936e+03 3.90e-02 2.78e+02  -2.5 4.10e+04    -  1.00e+00 1.00e+00h  1
 109  6.4017898e+03 9.13e-03 6.29e+01  -2.5 3.97e+04    -  1.00e+00 1.00e+00h  1
iter    objective    inf_pr   inf_du lg(mu)  ||d||  lg(rg) alpha_du alpha_pr  ls
 110  6.3998071e+03 2.74e-04 3.20e-01  -3.8 1.27e+03    -  1.00e+00 1.00e+00f  1
 111  6.3998209e+03 2.73e-07 4.67e-05  -5.7 1.09e+01    -  1.00e+00 1.00e+00h  1
 112  6.3998209e+03 2.05e-11 5.14e-07  -8.6 1.47e-02    -  1.00e+00 1.00e+00h  1

Number of Iterations....: 112

                                   (scaled)                 (unscaled)
Objective...............:   6.3998209203632305e+03    6.3998209203632305e+03
Dual infeasibility......:   5.1409006118774414e-07    5.1409006118774414e-07
Constraint violation....:   2.0511592424554692e-11    2.0511592424554692e-11
Complementarity.........:   2.5061879651745599e-09    2.5061879651745599e-09
Overall NLP error.......:   1.8393013987297676e-10    5.1409006118774414e-07


Number of objective function evaluations             = 485
Number of objective gradient evaluations             = 92
Number of equality constraint evaluations            = 485
Number of inequality constraint evaluations          = 0
Number of equality constraint Jacobian evaluations   = 115
Number of inequality constraint Jacobian evaluations = 0
Number of Lagrangian Hessian evaluations             = 112
Total CPU secs in IPOPT (w/o function evaluations)   =      0.268
Total CPU secs in NLP function evaluations           =      5.511

EXIT: Optimal Solution Found.
